MARKOV
6
2 2 2 2 2 2
12
2 0 1
2 0 2
2 0 3
2 0 4
2 1 2
2 1 3
2 1 4
2 1 5
2 2 4
2 2 5
2 3 4
2 4 5

4
 0.9501 3.6068
 0.2311 1.4860

4
 0.8913 2.4565
 1.7621 0.0185

4
 0.8214 6.6154
 1.4447 0.7919

4
 4.9218 0.1763
 0.7382 3.4057

4
 0.9355 6.4103
 2.9169 0.8936

4
 1.0579 4.8132
 2.3529 1.0099

4
 1.1389 0.1987
 0.2028 4.6038

4
 0.2722 1.0153
 2.1988 0.7468

4
 4.4451 1.4660
 2.9318 0.4186

4
 4.8462 2.2026
 0.5252 1.6721

4
 0.8381 1.6813
 0.0196 2.3795

4
 1.8318 0.7095
 5.5028 0.4289

